tsp_instances/TSP20/instance25.tsp
NODE_COORD_SECTION
0 191 97
1 76 60
2 152 171
3 57 130
4 87 150
5 180 188
6 176 125
7 113 163
8 147 90
9 156 96
10 143 161
11 198 163
12 125 63
13 85 147
14 87 181
15 170 120
16 9 107
17 183 33
18 122 136
19 146 191
