tsp_instances/TSP20/instance25.opt.tour
TOUR_SECTION
1
10
9
18
13
2
17
4
14
5
15
8
19
11
3
20
6
12
7
16
-1